20190919 105000.00 68700.00
20180522 99700.00 65500.00
20170906 71252.25 46101.99
20170828 71252.25 45661.79
20170518 71188.16 44617.18
20170110 54760.12 34320.90
20160901 54760.12 32275.32
20160524 53022.30 32275.32
20160415 53022.30 31861.97
20160107 40786.39 24509.21
